%%%mzn-stat: initTime=0.014356045
%%%mzn-stat: objective=252
%%%mzn-stat: nodes=570
%%%mzn-stat: restarts=0
%%%mzn-stat: peakDepth=311
%%%mzn-stat: solveTime=0.100301456
%%%mzn-stat: variables=1512
%%%mzn-stat: propagators=1152
%%%mzn-stat: failures=255
%%%mzn-stat: propagations=187628
%%%mzn-stat: nogoods=255
%%%mzn-stat: AverageConflictSize=2.0431372549019606
%%%mzn-stat: NumUnitNogoodsLearned=251
%%%mzn-stat: AverageLearnedNogoodLength=1.992156862745098
%%%mzn-stat: AverageBacktrackAmount=0
%%%mzn-stat: AverageLbd=1.2509803921568627
%%%mzn-stat-end
maxleg = 252;
succ = array1d(1..50,[47, 36, 40, 45, 39, 38, 1, 21, 29, 48, 4, 31, 50, 28, 26, 17, 11, 13, 34, 43, 42, 6, 30, 14, 22, 46, 12, 3, 37, 25, 2, 16, 41, 27, 19, 8, 5, 20, 24, 32, 9, 10, 18, 33, 35, 44, 23, 49, 7, 15]);
% time elapsed: 1.70 s
----------
==========
% time elapsed: 1.70 s
%%%mzn-stat: initTime=0.014356045
%%%mzn-stat: objective=252
%%%mzn-stat: nodes=570
%%%mzn-stat: restarts=0
%%%mzn-stat: peakDepth=311
%%%mzn-stat: solveTime=0.100311218
%%%mzn-stat: variables=1512
%%%mzn-stat: propagators=1152
%%%mzn-stat: failures=255
%%%mzn-stat: propagations=187628
%%%mzn-stat: nogoods=255
%%%mzn-stat: AverageConflictSize=2.0431372549019606
%%%mzn-stat: NumUnitNogoodsLearned=251
%%%mzn-stat: AverageLearnedNogoodLength=1.992156862745098
%%%mzn-stat: AverageBacktrackAmount=0
%%%mzn-stat: AverageLbd=1.2509803921568627
%%%mzn-stat-end
